99057.0
1457
0 1 2 3 5 7 8 9 10 16 17 18 19 21 22 23 26 27 28 29 30 31 32 34 35 37 38 39 40 41 42 43 44 45 46 48 50 51 53 54 55 57 60 62 63 68 69 71 72 78 79 83 84 85 86 88 89 90 92 94 95 96 97 98 99 